(set-info :smt-lib-version 2.6)
(set-logic UFNIA)
(set-info :source |
Generated by: Geoff Sutcliffe
Generated on: 2026-03-11
Generator: TPTPWorld
Application: Benchmarking automated theorem provers
Time limit: 120.0

These benchmarks are translations from the TPTP Library (Thousands of
Problems for Theorem Provers), see http://www.cs.miami.edu/~tptp/

The TPTP is maintained by Geoff Sutcliffe, and he contributed this
selection of benchmarks to SMT-LIB.  They were exported from the
v9.2.1 realease of TPTP.
|)
(set-info :category "industrial")
(set-info :status "unknown")
; SZS status Success
(declare-sort $$unsorted 0)
(declare-fun tptp.v0 (Int) Int)
(declare-fun tptp.u2 (Int Int) Int)
(declare-fun tptp.g4 (Int) Int)
(declare-fun |tptp.'div:(Int*Int)>Int'| (Int Int) Int)
(declare-fun tptp.h2 () Int)
(declare-fun tptp.g2 (Int) Int)
(declare-fun tptp.u1 (Int Int) Int)
(declare-fun tptp.v3 (Int) Int)
(declare-fun tptp.u0 (Int Int) Int)
(declare-fun tptp.v1 (Int) Int)
(declare-fun tptp.u3 (Int Int) Int)
(declare-fun tptp.v2 (Int) Int)
(declare-fun tptp.g0 (Int) Int)
(declare-fun tptp.h3 (Int) Int)
(declare-fun tptp.h1 (Int) Int)
(declare-fun tptp.h4 () Int)
(declare-fun tptp.g3 () Int)
(declare-fun tptp.u4 (Int Int) Int)
(declare-fun tptp.f0 (Int Int) Int)
(declare-fun tptp.f3 (Int) Int)
(declare-fun tptp.h0 () Int)
(declare-fun tptp.g1 () Int)
(declare-fun tptp.f2 (Int Int) Int)
(declare-fun tptp.fast (Int) Int)
(declare-fun tptp.small (Int) Int)
(declare-fun tptp.v4 (Int) Int)
(declare-fun tptp.f4 (Int Int) Int)
(declare-fun tptp.f1 (Int) Int)
(assert (forall ((X Int) (Y Int)) (= (tptp.f0 X Y) (* X Y))))
(assert (forall ((X Int)) (= (tptp.g0 X) (* 2 (* X X)))))
(assert (= tptp.h0 1))
(assert (forall ((X Int) (Y Int)) (let ((_let_1 (tptp.u0 X Y))) (let ((_let_2 (<= X 0))) (and (=> _let_2 (= _let_1 Y)) (=> (not _let_2) (= _let_1 (tptp.f0 (tptp.u0 (- X 1) Y) X))))))))
(assert (forall ((X Int)) (= (tptp.v0 X) (tptp.u0 (tptp.g0 X) tptp.h0))))
(assert (forall ((X Int)) (= (tptp.small X) (+ (tptp.v0 X) X))))
(assert (forall ((X Int) (Y Int)) (= (tptp.f2 X Y) (* 2 (+ (- X (|tptp.'div:(Int*Int)>Int'| X Y)) X)))))
(assert (forall ((X Int)) (= (tptp.g2 X) X)))
(assert (= tptp.h2 1))
(assert (forall ((X Int) (Y Int)) (let ((_let_1 (tptp.u2 X Y))) (let ((_let_2 (<= X 0))) (and (=> _let_2 (= _let_1 Y)) (=> (not _let_2) (= _let_1 (tptp.f2 (tptp.u2 (- X 1) Y) X))))))))
(assert (forall ((X Int)) (= (tptp.v2 X) (tptp.u2 (tptp.g2 X) tptp.h2))))
(assert (forall ((X Int)) (= (tptp.f3 X) (* X X))))
(assert (= tptp.g3 1))
(assert (forall ((X Int) (Y Int)) (= (tptp.f4 X Y) (* X Y))))
(assert (forall ((X Int)) (= (tptp.g4 X) X)))
(assert (= tptp.h4 1))
(assert (forall ((X Int) (Y Int)) (let ((_let_1 (tptp.u4 X Y))) (let ((_let_2 (<= X 0))) (and (=> _let_2 (= _let_1 Y)) (=> (not _let_2) (= _let_1 (tptp.f4 (tptp.u4 (- X 1) Y) X))))))))
(assert (forall ((X Int)) (= (tptp.v4 X) (tptp.u4 (tptp.g4 X) tptp.h4))))
(assert (forall ((X Int)) (= (tptp.h3 X) (tptp.v4 X))))
(assert (forall ((X Int) (Y Int)) (let ((_let_1 (tptp.u3 X Y))) (let ((_let_2 (<= X 0))) (and (=> _let_2 (= _let_1 Y)) (=> (not _let_2) (= _let_1 (tptp.f3 (tptp.u3 (- X 1) Y)))))))))
(assert (forall ((X Int)) (= (tptp.v3 X) (tptp.u3 tptp.g3 (tptp.h3 X)))))
(assert (forall ((X Int)) (= (tptp.f1 X) (* (tptp.v2 X) (tptp.v3 X)))))
(assert (= tptp.g1 1))
(assert (forall ((X Int)) (= (tptp.h1 X) (* X X))))
(assert (forall ((X Int) (Y Int)) (let ((_let_1 (tptp.u1 X Y))) (let ((_let_2 (<= X 0))) (and (=> _let_2 (= _let_1 Y)) (=> (not _let_2) (= _let_1 (tptp.f1 (tptp.u1 (- X 1) Y)))))))))
(assert (forall ((X Int)) (= (tptp.v1 X) (tptp.u1 tptp.g1 (tptp.h1 X)))))
(assert (forall ((X Int)) (= (tptp.fast X) (+ (tptp.v1 X) X))))
(assert (not (not (exists ((C Int)) (and (>= C 0) (not (= (tptp.small C) (tptp.fast C))))))))
(check-sat)
(exit)
